
  22    4
  10   10   10   10

   0   0   0   0   0   3 2 3 6 
   4  10  10  10  10   5 10 8 7 5 4 
   6  10  10  10  10   1 4 
   1  10  10  10  10   2 11 9 
   4  10  10  10  10   2 11 9 
   6  10  10  10  10   2 10 9 
   8  10  10  10  10   2 14 9 
   5  10  10  10  10   3 14 13 12 
   8  10  10  10  10   2 13 12 
   3  10  10  10  10   2 14 12 
   9  10  10  10  10   2 14 13 
   7  10  10  10  10   4 21 17 16 15 
   3  10  10  10  10   2 17 15 
   3  10  10  10  10   2 21 17 
  10  10  10  10  10   2 19 18 
   7  10  10  10  10   2 19 18 
   7  10  10  10  10   1 20 
   7  10  10  10  10   1 22
   1  10  10  10  10   1 22
   8  10  10  10  10   1 22
   9  10  10  10  10   1 22
   0   0   0   0   0   0 
